c0131 rD 0 2                                                                    
c0131 rD 1 3                                                                    
c0131 rD 1 4                                                                    
c0211 rL 1 0                                                                    
c0211 rL 3 0                                                                    
c0211 rL 4 0                                                                    
c0095 rDS1 0 1                                                                  
c0095 rDS1 1 0                                                                  
c0095 rDS1 2 0                                                                  
c0152 rG 2 2                                                                    
c0152 rG 3 2                                                                    
c0152 rG 4 3                                                                    
c0103 rE 1 3                                                                    
c0103 rE 3 0                                                                    
c0103 rE 4 3                                                                    
c0111 rB 0 4                                                                    
c0111 rB 3 2                                                                    
c0111 rB 4 4                                                                    
c0113 rL 0 3                                                                    
c0113 rL 1 4                                                                    
c0113 rL 2 2                                                                    
c0115 rA 0 2                                                                    
c0115 rA 1 2                                                                    
c0115 rA 2 3                                                                    
c0119 rA 1 3                                                                    
c0119 rA 2 1                                                                    
c0119 rA 3 1                                                                    
c0127 rDS2 2 1                                                                  
c0127 rDS2 3 0                                                                  
c0127 rDS2 4 1                                                                  
c0007 r38 1 2                                                                   
c0007 r38 2 0                                                                   
c0007 r38 4 2                                                                   
c0015 r38 1 3                                                                   
c0015 r38 2 2                                                                   
c0015 r38 3 2                                                                   
c0019 r50 1 2                                                                   
c0019 r50 2 1                                                                   
c0019 r50 4 0                                                                   
c0020 r50 0 2                                                                   
c0020 r50 1 1                                                                   
c0020 r50 4 1                                                                   
c0023 rG 2 1                                                                    
c0023 rG 3 3                                                                    
c0023 rG 4 1                                                                    
c0080 r36 2 3                                                                   
c0080 r36 3 0                                                                   
c0080 r36 4 1                                                                   
c0088 rF 1 1                                                                    
c0088 rF 2 2                                                                    
c0088 rF 2 4                                                                    
c0088 rF 3 2                                                                    
c0088 rF 4 2                                                                    
c0044 r27 0 1                                                                   
c0044 r27 1 1                                                                   
c0044 r27 3 0                                                                   
c0110 rF 1 2                                                                    
c0110 rF 2 3                                                                    
c0110 rF 3 1                                                                    
c0058 rE 1 1                                                                    
c0058 rE 2 2                                                                    
c0058 rE 3 4                                                                    
c0061 rB 1 3                                                                    
c0061 rB 2 4                                                                    
c0061 rB 4 0                                                                    
c0066 r37 2 0                                                                   
c0066 r37 3 4                                                                   
c0066 r37 4 3                                                                   
c0074 r50 1 0                                                                   
c0074 r50 2 0                                                                   
c0074 r50 3 4                                                                   
c0213 rD 2 0                                                                    
c0213 rD 3 1                                                                    
c0213 rD 4 1                                                                    
c0219 r52 0 1                                                                   
c0219 r52 1 3                                                                   
c0219 r52 1 4                                                                   
c0178 rE 2 1                                                                    
c0178 rE 3 1                                                                    
c0178 rE 4 1                                                                    
c0186 rE 2 4                                                                    
c0186 rE 3 3                                                                    
c0186 rE 4 0                                                                    
c0193 r52 1 0                                                                   
c0193 r52 2 4                                                                   
c0193 r52 3 0                                                                   
c0108 rDS1 0 0                                                                  
c0108 rDS1 1 1                                                                  
c0108 rDS1 4 0                                                                  
c0056 rA 1 0                                                                    
c0056 rA 2 0                                                                    
c0056 rA 4 1                                                                    
c0195 rE 0 2                                                                    
c0195 rE 3 2                                                                    
c0195 rE 4 2                                                                    
c0206 rG 0 1                                                                    
c0206 rG 2 0                                                                    
c0206 rG 4 0                                                                    
c0467 r36 0 1                                                                   
c0467 r36 1 3                                                                   
c0467 r36 4 2                                                                   
c0129 rG 0 4                                                                    
c0129 rG 2 3                                                                    
c0129 rG 4 4                                                                    
c0155 r31 0 3                                                                   
c0155 r31 2 1                                                                   
c0155 r31 3 1                                                                   
c0155 r31 3 3                                                                   
c0155 r31 3 4                                                                   
c0155 r31 4 1                                                                   
c0155 r31 4 2                                                                   
c0156 r52 0 3                                                                   
c0156 r52 1 2                                                                   
c0156 r52 2 0                                                                   
c0156 r52 2 1                                                                   
c0156 r52 3 3                                                                   
c0156 r52 3 4                                                                   
c0156 r52 4 2                                                                   
c0157 rDS1 0 3                                                                  
c0157 rDS1 1 2                                                                  
c0157 rDS1 2 4                                                                  
c0157 rDS1 3 1                                                                  
c0157 rDS1 3 3                                                                  
c0157 rDS1 3 4                                                                  
c0157 rDS1 4 2                                                                  
c0252 rF 0 2                                                                    
c0252 rF 1 3                                                                    
c0252 rF 1 4                                                                    
c0266 rF 0 3                                                                    
c0266 rF 2 0                                                                    
c0266 rF 2 1                                                                    
c0238 rD 0 1                                                                    
c0238 rD 1 1                                                                    
c0238 rD 2 1                                                                    
c0279 rB 0 0                                                                    
c0279 rB 3 1                                                                    
c0279 rB 4 3                                                                    
c0076 rDS2 2 2                                                                  
c0076 rDS2 3 2                                                                  
c0076 rDS2 4 2                                                                  
c0470 r38 2 1                                                                   
c0470 r38 3 1                                                                   
c0470 r38 4 3                                                                   
c0009 r31 0 4                                                                   
c0009 r31 1 1                                                                   
c0009 r31 3 2                                                                   
c0217 rB 0 2                                                                    
c0217 rB 2 2                                                                    
c0217 rB 4 2                                                                    
c0230 rD 0 3                                                                    
c0230 rD 3 4                                                                    
c0230 rD 4 0                                                                    
c0201 rL 2 3                                                                    
c0201 rL 3 4                                                                    
c0201 rL 4 1                                                                    
c0552 r37 1 4                                                                   
c0552 r37 2 3                                                                   
c0552 r37 3 3                                                                   
c0480 rF 0 1                                                                    
c0480 rF 3 0                                                                    
c0480 rF 4 4                                                                    
c0054 rD 0 4                                                                    
c0054 rD 1 0                                                                    
c0054 rD 2 3                                                                    
c0054 rD 2 4                                                                    
c0054 rD 3 3                                                                    
c0455 r50 2 2                                                                   
c0455 r50 3 0                                                                   
c0455 r50 4 4                                                                   
c0602 r31 0 1                                                                   
c0602 r31 1 0                                                                   
c0602 r31 2 3                                                                   
c0559 r36 2 2                                                                   
c0559 r36 3 1                                                                   
c0559 r36 4 3                                                                   
c0069 r52 0 0                                                                   
c0069 r52 3 1                                                                   
c0069 r52 4 0                                                                   
c0295 rDS2 0 0                                                                  
c0295 rDS2 0 1                                                                  
c0295 rDS2 1 2                                                                  
c0295 rDS2 3 4                                                                  
c0295 rDS2 4 4                                                                  
c0288 rDS2 2 3                                                                  
c0288 rDS2 3 1                                                                  
c0288 rDS2 4 3                                                                  
c0297 r36 0 2                                                                   
c0297 r36 0 3                                                                   
c0297 r36 1 2                                                                   
c0297 r36 2 1                                                                   
c0297 r36 4 4                                                                   
c0302 rF 1 0                                                                    
c0302 rF 3 3                                                                    
c0302 rF 4 1                                                                    
c0311 r31 1 4                                                                   
c0311 r31 2 4                                                                   
c0311 r31 3 0                                                                   
c0313 r37 1 2                                                                   
c0313 r37 2 1                                                                   
c0313 r37 4 4                                                                   
c0314 rDS1 2 1                                                                  
c0314 rDS1 3 0                                                                  
c0314 rDS1 4 4                                                                  
c0310 rL 1 3                                                                    
c0310 rL 3 1                                                                    
c0310 rL 4 3                                                                    
c0315 r27 1 0                                                                   
c0315 r27 3 3                                                                   
c0315 r27 4 1                                                                   
c0316 r38 1 0                                                                   
c0316 r38 3 0                                                                   
c0316 r38 4 1                                                                   
c0298 rA 0 3                                                                    
c0298 rA 0 4                                                                    
c0298 rA 1 4                                                                    
c0298 rA 2 4                                                                    
c0298 rA 3 0                                                                    
c0304 r37 0 3                                                                   
c0304 r37 0 4                                                                   
c0304 r37 2 2                                                                   
c0304 r37 3 0                                                                   
c0304 r37 4 2                                                                   
c0346 rA 0 1                                                                    
c0346 rA 1 1                                                                    
c0346 rA 2 2                                                                    
c0346 rA 3 2                                                                    
c0346 rA 3 3                                                                    
c0379 r27 1 3                                                                   
c0379 r27 2 2                                                                   
c0379 r27 4 2                                                                   
c0366 r38 0 3                                                                   
c0366 r38 0 4                                                                   
c0366 r38 1 4                                                                   
c0366 r38 2 3                                                                   
c0366 r38 3 4                                                                   
c0391 rG 1 3                                                                    
c0391 rG 2 4                                                                    
c0391 rG 3 1                                                                    
c0386 rL 0 1                                                                    
c0386 rL 1 1                                                                    
c0386 rL 3 2                                                                    
c0638 rL 0 2
c0638 rL 1 2
c0638 rL 2 0
c0638 rL 2 1
c0322 r27 0 4
c0322 r27 1 4
c0322 r27 2 0
c0322 r27 2 3
c0322 r27 3 2
c0323 rB 1 1
c0323 rB 2 1
c0323 rB 3 3
c0326 rD 2 2
c0326 rD 3 2
c0326 rD 4 2
c0327 rB 1 2
c0327 rB 2 3
c0327 rB 4 1
c0336 rDS2 0 2
c0336 rDS2 0 3
c0336 rDS2 1 1
c0337 r27 1 2
c0337 r27 2 1
c0337 r27 3 1
c0307 r37 0 2
c0307 r37 1 0
c0307 r37 1 1
c0307 r37 2 4
c0307 r37 3 2
c0633 rE 0 0
c0633 rE 0 1
c0633 rE 1 2
c0633 rE 2 3
c0633 rE 4 4
c0368 r50 0 3
c0368 r50 1 4
c0368 r50 3 3
c0388 r50 0 0
c0388 r50 1 3
c0388 r50 3 1
c0388 r50 4 2
c0388 r50 4 3